p cnf 23 9
a 1 2 0
e 3 0
a 4 0
e 5 6 0
a 7 8 0
e 9 10 0
a 11 0
e 12 13 0
a 14 15 16 0
e 17 18 0
a 19 0
e 20 0
a 21 22 0
e 23 0
-5 -9 -8 -4 0
12 11 -3 -17 0
11 15 -7 0
-15 12 0
15 4 1 0
-18 13 -4 -3 0
-14 -13 9 8 0
22 14 -16 7 1 0
22 7 -1 6 19 0
